\ENCODING=ISO-8859-1
\Problem name: gr4x6.mps

Maximize
 COST: -7 X0               -6 X1               + 20 X2               -14 X3               -12 X4               + 2 X5               + 17 X6               + 10 X7               + 19 X8               -20 X9               + 13 X10              + 18 X11              -1 X12              -1 X13              + 7 X14              + 8 X15              -19 X16              -15 X17              -7 X18              + 15 X19              -3 X20              -13 X21              + 15 X22              -14 X23              -12 Y0               -17 Y1               -9 Y2               -11 Y3               -17 Y4               + 18 Y5               -12 Y6               -1 Y7               -9 Y8               -13 Y9               + 7 Y10              + 1 Y11              + 9 Y12              + 4 Y13              -9 Y14              + 9 Y15              + 6 Y16              -15 Y17              + 8 Y18              -16 Y19              + 4 Y20              -5 Y21              + 15 Y22              + 7 Y23
Subject To
 A0:  X0 + X1 + X2 + X3 + X4 + X5  = 45
 A1:  X6 + X7 + X8 + X9 + X10 + X11  = 35
 A2:  X12 + X13 + X14 + X15 + X16 + X17  = 20
 A3:  X18 + X19 + X20 + X21 + X22 + X23  = 15
 B0:  X0 + X6 + X12 + X18  = 35
 B1:  X1 + X7 + X13 + X19  = 30
 B2:  X2 + X8 + X14 + X20  = 25
 B3:  X3 + X9 + X15 + X21  = 15
 B4:  X4 + X10 + X16 + X22  = 5
 B5:  X5 + X11 + X17 + X23  = 5
 G0:  X0 - 35 Y0 <= 0
 G1:  X1 - 30 Y1 <= 0
 G2:  X2 - 25 Y2 <= 0
 G3:  X3 - 15 Y3 <= 0
 G4:  X4 - 5 Y4 <= 0
 G5:  X5 - 5 Y5 <= 0
 G6:  X6 - 35 Y6 <= 0
 G7:  X7 - 30 Y7 <= 0
 G8:  X8 - 25 Y8 <= 0
 G9:  X9 - 15 Y9 <= 0
 G10: X10 - 5 Y10 <= 0
 G11: X11 - 5 Y11 <= 0
 G12: X12 - 20 Y12 <= 0
 G13: X13 - 20 Y13 <= 0
 G14: X14 - 20 Y14 <= 0
 G15: X15 - 15 Y15 <= 0
 G16: X16 - 5 Y16 <= 0
 G17: X17 - 5 Y17 <= 0
 G18: X18 - 15 Y18 <= 0
 G19: X19 - 15 Y19 <= 0
 G20: X20 - 15 Y20 <= 0
 G21: X21 - 15 Y21 <= 0
 G22: X22 - 5 Y22 <= 0
 G23: X23 - 5 Y23 <= 0
Bounds
 0 <= Y0 <= 1
 0 <= Y1 <= 1
 0 <= Y2 <= 1
 0 <= Y3 <= 1
 0 <= Y4 <= 1
 0 <= Y5 <= 1
 0 <= Y6 <= 1
 0 <= Y7 <= 1
 0 <= Y8 <= 1
 0 <= Y9 <= 1
 0 <= Y10 <= 1
 0 <= Y11 <= 1
 0 <= Y12 <= 1
 0 <= Y13 <= 1
 0 <= Y14 <= 1
 0 <= Y15 <= 1
 0 <= Y16 <= 1
 0 <= Y17 <= 1
 0 <= Y18 <= 1
 0 <= Y19 <= 1
 0 <= Y20 <= 1
 0 <= Y21 <= 1
 0 <= Y22 <= 1
 0 <= Y23 <= 1
Binaries
 Y0  Y1  Y2  Y3  Y4  Y5  Y6  Y7  Y8  Y9  Y10  Y11  Y12  Y13  Y14  Y15  Y16 
 Y17  Y18  Y19  Y20  Y21  Y22  Y23 
End
